Route #1: 42 21 54 18 19 24 2
Route #2: 53 55 56 32 12 58 20 31
Route #3: 46 52 35 44 23 14 57 39
Route #4: 51 29 62 48 17 63 26
Route #5: 33 59 34 66 9 41 5 16 61 4 30
Route #6: 43 28 6 40 15 13 25
Route #7: 49 38 64 60 45 65 36
Route #8: 7 3 11 47 27 8
Route #9: 50 37 22 10
cost 1464
